104

O       1.341523229134787      3.876095518684098     21.513499450943275
N       1.012547843333926      3.281495576354699     20.494173298608548
C       0.730322175680604      3.501186029260382     19.243111001716841
C       0.653501505581236      4.626015721717769     18.239820817539524
C      -0.471536239765718      4.027113397546223     17.336634388841645
C       0.222085901814091      2.650263625771753     17.108699658166053
C       1.608440704887331      3.101874398864597     16.545825236121100
C       1.901783212217516      4.451272464439952     17.316182631398121
C       2.057814926327457      5.530658537304352     16.223210516129395
C       2.474372399747783      4.741489489052035     14.972909641267169
C       1.616677421926124      3.470358385442734     15.048033311971896
C       0.459065997338698      2.283727454863957     18.544512251955947
N       0.515769781696323      1.224336988145967     19.305520431611210
O       0.808960930864665      1.615041376955939     20.557602000030954
H       0.499490220951224      5.634070029305164     18.638874074412385
H      -1.437151487110294      3.943228910144786     17.845908586696343
H      -0.608911286165625      4.600506544787683     16.412256899983788
H      -0.314951250736088      1.911507432487023     16.506364031894265
H       2.380575001378947      2.350901224843103     16.759999330803677
H       2.823877200058178      4.377719373172575     17.909196965317236
H       1.094772458750219      6.035639451792585     16.043641007590569
H       2.786303740677456      6.299554546124629     16.507769476817465
H       2.344505169973486      5.298988579554662     14.034572046127503
H       3.540904544120813      4.470401765429045     15.040735673809221
H       1.998105755022353      2.660859337847222     14.414121750549914
H       0.593497678523251      3.692577526746422     14.701372226856932
O       2.238790716953918      3.095109137074935     11.725740461925183
N       2.567766102754775      3.689709079404330     10.706414309590496
C       2.849991770408096      3.470018626498652      9.455352012698770
C       2.926812440507462      2.345188934041264      8.452061828521432
C       4.051850185854419      2.944091258212814      7.548875399823582
C       3.358228044274610      4.320941029987276      7.320940669147986
C       1.971873241201371      3.869330256894435      6.758066247103034
C       1.678530733871185      2.519932191319083      7.528423642380035
C       1.522499019761242      1.440546118454678      6.435451527111301
C       1.105941546340911      2.229715166706997      5.185150652249094
C       1.963636524162576      3.500846270316295      5.260274322953843
C       3.121247948750002      4.687477200895072      8.756753262937883
N       3.064544164392379      5.746867667613068      9.517761442593134
O       2.771353015224039      5.356163278803089     10.769843011012865
H       3.080823725137479      1.337134626453869      8.851115085394309
H       5.017465433199003      3.027975745614240      8.058149597678254
H       4.189225232254338      2.370698110971354      6.624497910965701
H       3.895265196824787      5.059697223272007      6.718605042876191
H       1.199738944709754      4.620303430915922      6.972240341785606
H       0.756436746030526      2.593485282586453      8.121437976299172
H       2.485541487338481      0.935565203966440      6.255882018572484
H       0.794010205411247      0.671650109634398      6.720010487799407
H       1.235808776115219      1.672216076204371      4.246813057109412
H       0.039409401967888      2.500802890329983      5.252976684791150
H       1.582208191066349      4.310345317911808      4.626362761531852
H       2.986816267565450      3.278627129012609      4.913613237838834
O       5.819104663042618      0.390493190804583      7.849777516110964
N       6.148080048843477     -0.204106751524814      8.869103668445661
C       6.430305716496797      0.015583701380867     10.120165965337387
C       6.507126386596170      1.140413393838252     11.123456149514709
C       7.632164131943121      0.541511069666703     12.026642578212593
C       6.938541990363311     -0.835338702107759     12.254577308888164
C       5.552187187290076     -0.383727929014919     12.817451730933104
C       5.258844679959880      0.965670136560434     12.047094335656119
C       5.102812965849944      2.045056209424847     13.140066450924859
C       4.686255492429611      1.255887161172522     14.390367325787055
C       5.543950470251285     -0.015243942436781     14.315243655082343
C       6.701561894838712     -1.201874873015561     10.818764715098281
N       6.644858110481072     -2.261265339733546     10.057756535443033
O       6.351666961312728     -1.870560950923575      8.805674967023283
H       6.661137671226173      2.148467701425647     10.724402892641843
H       8.597779379287690      0.457626582265276     11.517368380357897
H       7.769539178343033      1.114904216908165     12.951020067070438
H       7.475579142913488     -1.574094895392493     12.856912935159951
H       4.780052890798453     -1.134701103036411     12.603277636250565
H       4.336750692119226      0.892117045293066     11.454080001736976
H       6.065855433427183      2.550037123913079     13.319635959463652
H       4.374324151499944      2.813952218245119     12.855507490236732
H       4.816122722203925      1.813386251675138     15.328704920926732
H       3.619723348056589      0.984799437549533     14.322541293245012
H       5.162522137155047     -0.824742990032292     14.949155216504304
H       6.567130213654146      0.206975198866911     14.661904740197315
O       4.921837175223486      6.580711464954445     -1.937981472907121
N       4.592861789422630      7.175311407283854     -0.918655320572416
C       4.310636121769301      6.955620954378167      0.332406976319294
C       4.233815451669934      5.830791261920778      1.335697160496640
C       3.108777706322985      6.429693586092320      2.238883589194515
C       3.802399847902793      7.806543357866791      2.466818319870100
C       5.188754650976021      7.354932584773946      3.029692741915045
C       5.482097158306219      6.005534519198603      2.259335346638040
C       5.638128872416164      4.926148446334184      3.352307461906766
C       6.054686345836494      5.715317494586508      4.602608336768991
C       5.196991368014823      6.986448598195811      4.527484666064241
C       4.039379943427397      8.173079528774597      1.031005726080206
N       4.096083727785028      9.232469995492576      0.269997546424955
O       4.389274876953368      8.841765606682618     -0.982084021994792
H       4.079804167039930      4.822736954333393      0.936643903623763
H       2.143162458978410      6.513578073493761      1.729609391339814
H       2.971402659923078      5.856300438850861      3.163261078052379
H       3.265362695352612      8.545299551151519      3.069153946141892
H       5.960888947467645      8.105905758795441      2.815518647232478
H       6.404191146146873      6.079087610465963      1.666321012718910
H       4.675086404838920      4.421167531845961      3.531876970445585
H       6.366617686766151      4.157252437513915      3.067748501218662
H       5.924819116062179      5.157818404083891      5.540945931908667
H       7.121218490209517      5.986405218209495      4.534782304226937
H       5.578419701111058      7.795947645791314      5.161396227486232
H       4.173811624611953      6.764229456892127      4.874145751179234
