104

O       1.310132403742748      3.879398196634689     21.527615046566694
N       0.968223329023875      3.265612235580670     20.523467459841712
C       0.679156849663445      3.461274529179275     19.270587959444732
C       0.629416493167241      4.563947525403453     18.242440171460323
C      -0.495121170836728      3.964036360636001     17.340296889451700
C       0.176562198628095      2.570796634975649     17.149878554173579
C       1.576536330800729      2.985934710464980     16.592909432595917
C       1.888717506545535      4.342708990701247     17.343552895812827
C       2.098339530576653      5.395016001386209     16.234190764513166
C       2.522211268668777      4.566630383252531     15.012152642873762
C       1.615589845666620      3.330407865806115     15.090150407360136
C       0.399392162663823      2.232386240045545     18.595740047415422
N       0.457402505318745      1.187024237653691     19.376127913962542
O       0.755461862372762      1.600439057267533     20.619811480330494
H       0.486756273734775      5.582184714589907     18.619193012820652
H      -1.467646441603149      3.908474520792774     17.840295050767441
H      -0.610869488735509      4.518192172767296     16.401207119558812
H      -0.368026063007565      1.827150315189227     16.560017554230704
H       2.331758208912259      2.224255569488772     16.828280714822441
H       2.796257777766219      4.256159906700979     17.956543257794443
H       1.153937229881822      5.921403357111933     16.019357308819508
H       2.840781132865708      6.149233803652837     16.521891544626193
H       2.441472494836764      5.106865623603717     14.058535774003152
H       3.575270516810361      4.256990891510928     15.119221037572050
H       1.973314765271089      2.497347920666547     14.472813492803802
H       0.606816911445381      3.589284199218476     14.726932416834851
O       2.264407615195455      3.085948896678622     11.714377372095177
N       2.606316689914324      3.699734857732644     10.710229785370172
C       2.895383169274754      3.504072564134044      9.457350284973222
C       2.945123525770959      2.401399567909869      8.429202496988827
C       4.069661189774933      3.001310732677314      7.527059214980160
C       3.397977820310105      4.394550458337672      7.336640879702069
C       1.998003688137473      3.979412382848334      6.779671758124405
C       1.685822512392669      2.622638102612071      7.530315221341301
C       1.476200488361549      1.570331091927103      6.420953090041663
C       1.052328750269425      2.398716710060781      5.198914968402243
C       1.958950173271580      3.634939227507198      5.276912732888624
C       3.175147856274377      4.732960853267764      8.782502372943906
N       3.117137513619455      5.778322855659629      9.562890239491017
O       2.819078156565438      5.364908036045787     10.806573805858971
H       3.087783745203427      1.383162378723412      8.805955338349149
H       5.042186460541346      3.056872572520540      8.027057376295923
H       4.185409507673706      2.447154920546021      6.587969445087272
H       3.942566081945764      5.138196778124091      6.746779879759184
H       1.242781810025940      4.741091523824546      7.015043040350974
H       0.778282241171982      2.709187186612331      8.143305583322931
H       2.420602789056377      1.043943736201382      6.206119634347989
H       0.733758886072493      0.816113289660477      6.708653870154691
H       1.133067524101441      1.858481469709592      4.245298099531642
H      -0.000730497872160      2.708356201802385      5.305983363100554
H       1.601225253667111      4.467999172646768      4.659575818332287
H       2.967723107492821      3.376062894094839      4.913694742363342
O       5.838947634133643      7.362071743291348      7.912097976847859
N       6.180856708852526      6.748285782237325      8.916245563572858
C       6.469923188212955      6.943948075835932     10.169125063969805
C       6.519663544709161      8.046621072060113     11.197272851954212
C       7.644201208713133      7.446709907292657     12.099416133962858
C       6.972517839248312      6.053470181632306     12.289834469240951
C       5.572543707075679      6.468608257121633     12.846803590818634
C       5.260362531330870      7.825382537357899     12.096160127601735
C       5.050740507299750      8.877689548042865     13.205522258901372
C       4.626868769207621      8.049303929909193     14.427560380540786
C       5.533490192209779      6.813081412462780     14.349562616054401
C       6.749687875212574      5.715059786702207     10.843972975999119
N       6.691677532557659      4.669697784310343     10.063585109452008
O       6.393618175503640      5.083112603924184      8.819901543084056
H       6.662323764141622      9.064858261246561     10.820520010593885
H       8.616726479479548      7.391148067449432     11.599417972647100
H       7.759949526611904      8.000865719423953     13.038505903855757
H       7.517106100883969      5.309823861845873     12.879695469183854
H       4.817321828964147      5.706929116145428     12.611432308592063
H       4.352822260110186      7.738833453357632     11.483169765620108
H       5.995142807994581      9.404076903768592     13.420355714595019
H       4.308298905010693      9.631907350309493     12.917821478788351
H       4.707607543039639      8.589539170260377     15.381177249411389
H       3.573809521066039      7.739664438167591     14.320491985842503
H       5.175765272605314      5.980021467323194     14.966899530610744
H       6.542263126431015      7.071957745875130     14.712780606579688
O       4.884672422680956     -0.396724649978032     -1.901139697623661
N       4.542763347962080      0.217061311075990     -0.896992110898658
C       4.253696868601646      0.021399017477383      0.355887389498297
C       4.203956512105443     -1.081273978746788      1.384035177482698
C       3.079418848101478     -0.481362813979342      2.286178459491346
C       3.751102217566300      0.911876911681006      2.476596794769444
C       5.151076349738924      0.496738836191678      3.033565916347113
C       5.463257525483732     -0.860035444044587      2.282922453130208
C       5.672879549514850     -1.912342454729556      3.392284584429847
C       6.096751287606982     -1.083956836595875      4.614322706069274
C       5.190129864604815      0.152265680850542      4.536324941582892
C       3.973932181602026      1.250287306611112      1.030735301527601
N       4.031942524256944      2.295649309002971      0.250347434980496
O       4.330001881310971      1.882234489389125     -0.993336131387458
H       4.061296292672977     -2.099511167933244      1.007282336122371
H       2.106893577335055     -0.425800974136115      1.786180298175585
H       2.963670530202695     -1.035518626110634      3.225268229384250
H       3.206513955930636      1.655523231467433      3.066457794712338
H       5.906298227850459      1.258417977167884      2.798194634120543
H       6.370797796704420     -0.773486360044324      1.669932091148580
H       4.728477248820027     -2.438729810455274      3.607118040123518
H       6.415321151803909     -2.666560256996181      3.104583804316829
H       6.016012513774966     -1.624192076947063      5.567939574939877
H       7.149810535748561     -0.774317344854272      4.507254311370962
H       5.547854784209295      0.985325625990114      5.153661856139237
H       4.181356930383593     -0.106610652561819      4.899542932108171
