64

O       1.418316626828741      8.768051123510535      2.599236037675730
N       2.447195415236119      9.350284510701355      2.217842081395272
O       2.458830358855223     10.431448644712855      1.613790426786953
C       3.724358043047491      8.694907568249121      2.509297834650946
C       4.013308547211709      7.518033235302259      1.690711237371886
N       3.140245866701345      6.824932983534537      0.959281147553092
N       3.881804332160335      5.816943624466404      0.505526319121252
N       5.147845229167938      5.854229815615636      0.896493654446268
N       5.253829622001767      6.912662874524546      1.632774593656205
N       4.879718924865330     10.036127252492209      1.923789688596515
O       5.372207886893486      9.873420726574684      0.835913374990782
O       4.993164966416101     10.919704877865806      2.733961061187104
N       3.854700915283083      8.527879500086282      3.952671955156992
O       3.055909176382985      9.183555859719176      4.648462003588750
O       4.713900014175608      7.762582491734292      4.445374991174504
H       3.532082241500874      5.068169821101892     -0.084311223821774
O       7.732476272768502     19.966790405415612      1.597785111412308
N       6.703597484361117     20.549023792606413      1.979179067692765
O       6.691962540742011     21.630187926617925      2.583230722301089
C       5.426434856549757     19.893646850154187      1.687723314437092
C       5.137484352385540     18.716772517207346      2.506309911716151
N       6.010547032895909     18.023672265439600      3.237740001534944
N       5.268988567436910     17.015682906371506      3.691494829966782
N       4.002947670429307     17.052969097520709      3.300527494641767
N       3.896963277595471     18.111402156429623      2.564246555431830
N       4.271073974731911     21.234866534397277      2.273231460491526
O       3.778585012703750     21.072160008479734      3.361107774097254
O       4.157627933181137     22.118444159770910      1.463060087900938
N       5.296091984314168     19.726618781991377      0.244349193931041
O       6.094883723214261     20.382295141624247     -0.451440854500718
O       4.436892885421631     18.961321773639373     -0.248353842086466
H       5.618710658096365     16.266909103006970      4.281332372909818
O       4.610245456258007     13.629427440299619      4.167716736472119
N       3.581366667850619     13.047194053108788      4.549110692752564
O       3.569731724231517     11.966029919097277      5.153162347360885
C       2.304204040039249     13.702570995561029      4.257654939496900
C       2.015253535875033     14.879445328507876      5.076241536775952
N       2.888316216385400     15.572545580275593      5.807671626594747
N       2.146757750926404     16.580534939343721      6.261426455026588
N       0.880716853918806     16.543248748194525      5.870459119701575
N       0.774732461084972     15.484815689285600      5.134178180491624
N       1.148843158221405     12.361351311317941      4.843163085551330
O       0.656354196193253     12.524057837235450      5.931039399157062
O       1.035397116670640     11.477773685944326      4.032991712960738
N       2.173861167803662     13.869599063723848      2.814280818990851
O       2.972652906703756     13.213922704090955      2.118490770559085
O       1.314662068911139     14.634896072075854      2.321577782973339
H       2.496479841585868     17.329308742708239      6.851263997969618
O      -1.703914189681758      2.430688158394529      5.169167662735536
N      -0.675035401274376      1.848454771203708      4.787773706455081
O      -0.663400457655277      0.767290637192211      4.183722051846758
C       0.602127226536990      2.503831713655947      5.079229459710747
C       0.891077730701209      3.680706046602795      4.260642862431693
N       0.018015050190839      4.373806298370511      3.529212772612899
N       0.759573515649831      5.381795657438655      3.075457944181060
N       2.025614412657430      5.344509466289424      3.466425279506075
N       2.131598805491266      4.286076407380518      4.202706218716018
N       1.757488108354837      1.162612029412858      4.493721313656317
O       2.249977070382987      1.325318555330384      3.405845000050587
O       1.870934149905602      0.279034404039249      5.303892686246912
N       0.732470098772577      2.670859781818780      6.522603580216806
O      -0.066321640127519      2.015183422185879      7.218393628648558
O       1.591669197665101      3.436156790170772      7.015306616234306
H       0.409851424990370      6.130569460803174      2.485620401238029
