64

O       1.327861989087235      8.847486892085696      2.572710038864368
N       2.367485014481693      9.426083862590875      2.220834421791640
O       2.411379440178306     10.526953216114673      1.659483652888945
C       3.632711166350664      8.736933451118931      2.499110388971285
C       3.860496459253682      7.558217045080672      1.666315396243848
N       2.949372744406305      6.931205575465958      0.921835915141169
N       3.629853567011923      5.888077972702561      0.454501574925473
N       4.893891235182246      5.841809446371141      0.847505642370853
N       5.061129941558633      6.881372285627767      1.602505017415057
N       4.867007482693068     10.036585782655450      1.935563021715404
O       5.338053272876449      9.887641912711471      0.836824379989200
O       5.039503435749160     10.884110859501821      2.774031145972676
N       3.753423552791403      8.568029990081820      3.937822264164458
O       2.968419386036537      9.246772967062869      4.628128124256579
O       4.587051723900768      7.778085052092117      4.436052017517727
H       3.234171334242574      5.176579312819777     -0.154518504290156
O       7.863064370382464     20.099111211320523      1.595036234705525
N       6.823441344988006     20.677708181825714      1.946911851778249
O       6.779546919291393     21.778577535349577      2.508262620680946
C       5.558215193119032     19.988557770353797      1.668635884598596
C       5.330429900216015     18.809841364315556      2.501430877326042
N       6.241553615063384     18.182829894700792      3.245910358428725
N       5.561072792457765     17.139702291937382      3.713244698644414
N       4.297035124287457     17.093433765606047      3.320240631199045
N       4.129796417911053     18.132996604862647      2.565241256154843
N       4.323918876776625     21.288210101890325      2.232183251854488
O       3.852873086593235     21.139266231946301      3.330921893580696
O       4.151422923720530     22.135735178736692      1.393715127597216
N       5.437502806678284     19.819654309316672      0.229924009405436
O       6.222506973433155     20.498397286297678     -0.460381850686683
O       4.603874635568919     19.029709371326955     -0.268305743947821
H       5.956755025227125     16.428203632054657      4.322264777860047
O       4.712597809170494     13.655761746384002      4.166768687570539
N       3.672974783776025     13.077164775878783      4.518644304643273
O       3.629080358079417     11.976295422354989      5.079995073545973
C       2.407748631907056     13.766315187350727      4.240368337463621
C       2.179963339004047     14.945031593389006      5.073163330191062
N       3.091087053851421     15.572043063003715      5.817642811293737
N       2.410606231245804     16.615170665767135      6.284977151509465
N       1.146568563075479     16.661439192098545      5.891973084064060
N       0.979329856699074     15.621876352841927      5.136973709019846
N       1.173452315564675     12.466662855814221      4.803915704719521
O       0.702406525381258     12.615606725758202      5.902654346445728
O       1.000956362508569     11.619137778967859      3.965447580462246
N       2.287036245466323     13.935218648387844      2.801656462270456
O       3.072040412221183     13.256475671406802      2.111350602178348
O       1.453408074356934     14.725163586377539      2.303426708917204
H       2.806288464015149     17.326669325649867      6.893997230725067
O      -1.822604572124731      2.404137427149136      5.144442491729392
N      -0.782981546730280      1.825540456643922      4.792566874656667
O      -0.739087121033667      0.724671103120154      4.231216105753963
C       0.482244605138693      2.514690868115872      5.070842841836330
C       0.710029898041710      3.693407274154149      4.238047849108867
N      -0.201093816805665      4.320418743768865      3.493568368006195
N       0.479387005799957      5.363546346532283      3.026234027790500
N       1.743424673970273      5.409814872863674      3.419238095235874
N       1.910663380346676      4.370252033607049      4.174237470280091
N       1.716540921481078      1.215038536579359      4.507295474580419
O       2.187586711664485      1.363982406523340      3.408556832854226
O       1.889036874537180      0.367513459732994      5.345763598837708
N       0.602956991579428      2.683594329152990      6.509554717029481
O      -0.182047175175439      2.004851352171966      7.199860577121611
O       1.436585162688817      3.473539267142710      7.007784470382742
H       0.083704773030595      6.075045006415044      2.417213948574871
