48

O       6.455885600960458      9.310763847670790      2.336846035476503
C       6.455885600960458      9.310763847670788      3.262183098141434
N       6.137376714189797      8.309979078020241      4.210923479752914
N       5.030626714370446      7.337381339128622      3.858750084533027
O       5.219523661407715      6.135481811512215      4.639769994383007
O       5.249996055491169      7.113364613077822      2.369751565351486
N       6.774394487731080     10.311548617321394      4.210923479752972
N       7.881144487550485     11.284146356212991      3.858750084533082
O       7.661775146429746     11.508163082263794      2.369751565351542
O       7.692247540513172     12.486045883829293      4.639769994383086
H       6.506265820967671      8.119014099324527      5.582144177067221
H       6.405505380953216     10.502513596017023      5.582144177067457
O       3.227942800480229      1.330109121095828      3.383420652187977
C       3.227942800480229      1.330109121095827      4.308757714852907
N       2.909433913709538      2.330893890746440      5.257498096464460
N       1.802683913890191      3.303491629638029      4.905324701244560
O       1.991580860927524      4.505391157254395      5.686344611094547
O       2.022053255010947      3.527508355688801      3.416326182063035
N       3.546451687250928      0.329324351445227      5.257498096464396
N       4.653201687070224     -0.643273387446369      4.905324701244473
O       4.433832345949535     -0.867290113497131      3.416326182062981
O       4.464304740032953     -1.845172915062728      5.686344611094507
H       3.278323020487452      2.521858869442086      6.628718793778918
H       3.177562580473039      0.138359372749573      6.628718793778679
O       6.455885600960458      3.990327363287489      4.429995268899506
C       6.455885600960458      3.990327363287487      5.355332331564401
N       6.137376714189797      2.989542593636896      6.304072713175870
N       5.030626714370446      2.016944854745291      5.951899317955969
O       5.219523661407715      0.815045327128924      6.732919227805983
O       5.249996055491169      1.792928128694529      4.462900798774437
N       6.774394487731080      4.991112132938108      6.304072713175939
N       7.881144487550485      5.963709871829685      5.951899317956051
O       7.661775146429746      6.187726597880470      4.462900798774474
O       7.692247540513173      7.165609399446041      6.732919227806064
H       6.506265820967671      2.798577614941228      7.675293410490168
H       6.405505380953216      5.182077111633729      7.675293410490401
O       3.227942800480229      6.650545605479143      1.290271418765044
C       3.227942800480229      6.650545605479143      2.215608481429942
N       2.909433913709538      7.651330375129773      3.164348863041480
N       1.802683913890191      8.623928114021325      2.812175467821592
O       1.991580860927524      9.825827641637636      3.593195377671607
O       2.022053255010947      8.847944840072117      1.323176948640082
N       3.546451687250928      5.649760835828529      3.164348863041434
N       4.653201687070224      4.677163096936932      2.812175467821543
O       4.433832345949535      4.453146370886189      1.323176948640039
O       4.464304740032953      3.475263569320600      3.593195377671573
H       3.278323020487452      7.842295353825386      4.535569560355989
H       3.177562580473039      5.458795857132910      4.535569560355747
