48

O       5.952919903976555      9.798134335982260      2.511799395524839
C       5.952919898805520      9.798134335982260      3.426313583373988
N       5.845542043437567      8.626434374611780      4.369564044565653
N       4.940835770392527      7.618118747829682      4.030363726207028
O       4.867431124275051      6.321262592536232      4.494598945766797
O       5.033630470008347      7.464438204025011      2.135368806195630
N       6.060297743506425     10.969834297352715      4.369564045779980
N       6.965004020387399     11.978149924134824      4.030363737652514
O       6.872209342201674     12.131830467939524      2.135368816591670
O       7.038408661254899     13.275006079428236      4.494598958042429
H       5.616706169988290      7.889582123505844      4.893811736750274
H       6.289133611027157     11.706686548458679      4.893811740552493
O       2.976459939112781      1.399733476568896      3.532977162909916
C       2.976459933941755      1.399733476568896      4.447491350759044
N       2.869082078573760      2.571433437939375      5.390741811950769
N       1.964375805528792      3.579749064721490      5.051541493592129
O       1.890971159411300      4.876605220014900      5.515776713151972
O       2.057170505144561      3.733429608526144      3.156546573580711
N       3.083837778642656      0.228033515198416      5.390741813165032
N       3.988544055523676     -0.780282111583698      5.051541505037617
O       3.895749377337919     -0.933962655388337      3.156546583976780
O       4.061948696391176     -2.077138266877121      5.515776725427529
H       2.640246205124506      3.308285689045289      5.914989504135387
H       3.312673646163334     -0.508818735907510      5.914989507937611
O       5.952919892428282      4.199200429706682      4.554154963955173
C       5.952919887257214      4.199200429706682      5.468669151804307
N       5.845542031889277      3.027500468336207      6.411919612996013
N       4.940835758844260      2.019184841554106      6.072719294637390
O       4.867431112726757      0.722328686260657      6.536954514197231
O       5.033630458460052      1.865504297749472      4.177724374625960
N       6.060297731958132      5.370900391077109      6.411919614210313
N       6.965004008839101      6.379216017859264      6.072719306082865
O       6.872209330653421      6.532896561663894      4.177724385022008
O       7.038408649706642      7.676072173152695      6.536954526472766
H       5.616706158439992      2.290648217230297      6.936167305180611
H       6.289133599478813      6.107752642183105      6.936167308982832
O       2.976459950661077      6.998667382844483      1.490621594479578
C       2.976459945490018      6.998667382844483      2.405135782328737
N       2.869082090122058      8.170367344215000      3.348386243520378
N       1.964375817077081      9.178682970997055      3.009185925161757
O       1.890971170959596     10.475539126290430      3.473421144721585
O       2.057170516692859      9.332363514801685      1.114191005150349
N       3.083837790190946      5.826967421473984      3.348386244734712
N       3.988544067071883      4.818651794691883      3.009185936607228
O       3.895749388886175      4.664971250887235      1.114191015546405
O       4.061948707939434      3.521795639398472      3.473421156997151
H       2.640246216672771      8.907219595320901      3.872633935705036
H       3.312673657711636      5.090115170368051      3.872633939507225
