168

O       3.259623533784180      2.527574194686408     -0.908439592974070
N       2.539773940389060      1.938901797212936      0.103276009212977
C       1.415459711769029      2.396050161731945      0.629174532687671
C       0.595604845125909      1.520507350030144      1.388939635022057
C      -0.617049390822883      1.956739439525047      1.959691662723323
C      -1.485879979563483      1.073174281254061      2.586478062708330
C      -1.185378994367098     -0.297389962350786      2.660107759481825
C       0.025326713694275     -0.752199690734921      2.163411417131103
C       0.979851049648788      0.132384510245119      1.549237066617486
O       2.112598884540903     -0.341775452382215      1.166474620918988
O       0.425866608504857     -2.053337600774949      2.229327097218194
C      -0.421651388235642     -3.020809150530406      2.879962331964055
H       3.930570400529418      1.790262302068526     -1.141844056745738
H       1.148338567647722      3.437552954240084      0.465725842846222
H      -0.869052034504715      3.015254869524951      1.881918372249706
H      -2.414531204762936      1.435528608954757      3.030325798366817
H      -1.896781634353392     -0.993299260306915      3.094109328537205
H       2.728176620063060      0.959383469092788      0.368072575100069
H       0.076699995626182     -3.987052023705651      2.723014051002896
H      -1.415725464366194     -3.030605587354257      2.421068330727727
H      -0.508417043234609     -2.820401824993771      3.956991924243717
O       0.043729804169420     13.283047066926054      6.656134328715797
N       0.763579397564536     13.871719464399471      7.667849930902836
C       1.887893626184572     13.414571099880510      8.193748454377529
C       2.707748492827688     14.290113911582235      8.953513556711934
C       3.920402728776472     13.853881822087372      9.524265584413163
C       4.789233317517053     14.737446980358362     10.151051984398153
C       4.488732332320701     16.108011223963178     10.224681681171651
C       3.278026624259319     16.562820952347316      9.727985338820909
C       2.323502288304811     15.678236751367292      9.113810988307318
O       1.190754453412705     16.152396713994552      8.731048542608841
O       2.877486729448741     17.863958862387356      9.793901018908034
C       3.725004726189225     18.831430412142780     10.444536253653892
H      -0.627217062575828     14.020358959543861      6.422729864944115
H       2.155014770305884     12.373068307372359      8.030299764536073
H       4.172405372458318     12.795366392087447      9.446492293939571
H       5.717884542716543     14.375092652657646     10.594899720056665
H       5.200134972306983     16.803920521919267     10.658683250227064
H       0.575176717890545     14.851237792519623      7.932646496789915
H       3.226653342327412     19.797673285318115     10.287587972692707
H       4.719078802319784     18.841226848966695      9.985642252417584
H       3.811770381188206     18.631023086606096     11.521565845933580
O       3.347083142123018     10.432884825492597      8.473013514663917
N       4.066932735518122      9.844212428019175      7.461297912476865
C       5.191246964138162     10.301360792538098      6.935399389002196
C       6.011101830781278      9.425817980836356      6.175634286667818
C       7.223756066730079      9.862050070331247      5.604882258966524
C       8.092586655470669      8.978484912060264      4.978095858981527
C       7.792085670274302      7.607920668455412      4.904466162208034
C       6.581379962212923      7.153110940071294      5.401162504558774
C       5.626855626258411      8.037695141051309      6.015336855072372
O       4.494107791366287      7.563535178423995      6.398099300770867
O       6.180840067402346      5.851973030031256      5.335246824471689
C       7.028358064142821      4.884501480275812      4.684611589725804
H       2.676136275377758      9.695572932874722      8.706417978435606
H       5.458368108259455     11.342863585046254      7.098848078843632
H       7.475758710411907     10.920565500331195      5.682655549440166
H       9.021237880670125      9.340839239760957      4.534248123323033
H       8.503488310260579      6.912011370499290      4.470464593152657
H       3.878530055844141      8.864694099899012      7.196501346589766
H       6.530006680281017      3.918258607100528      4.841559870686980
H       8.022432140273404      4.874705043451955      5.143505590962152
H       7.115123719141793      5.084908805812377      3.607581997446141
O       6.562976871737787      5.377736436119776     16.037587436353789
N       5.843127278342678      5.966408833593274     15.025871834166736
C       4.718813049722621      5.509260469074264     14.499973310692035
C       3.898958183079509      6.384803280776048     13.740208208357640
C       2.686303947130715      5.948571191281146     13.169456180656407
C       1.817473358390119      6.832136349552135     12.542669780671357
C       2.117974343586502      8.202700593156942     12.469040083897848
C       3.328680051647877      8.657510321541077     12.965736426248627
C       4.283204387602389      7.772926120561082     13.579910776762219
O       5.415952222494491      8.247086083188451     13.962673222460721
O       3.729219946458447      9.958648231581178     12.899820746161538
C       2.881701949717955     10.926119781336597     12.249185511415655
H       7.233923738483004      6.115048328737662     16.270991900125431
H       4.451691905601323      4.467757676566108     14.663422000533446
H       2.434301303448889      4.890055761281230     13.247229471130005
H       0.888822133190670      6.469782021851426     12.098822045012902
H       1.406571703600210      8.898609891113102     12.035038514842485
H       6.031529958016635      6.945927161713440     14.761075268279683
H       3.380053333579782     11.892362654511855     12.406133792376840
H       1.887627873587407     10.935916218160425     12.708079512651965
H       2.794936294718986     10.725712455799981     11.172155919136001
O       3.347083142123017     13.283047066926025     16.037587436353792
N       4.066932735518122     13.871719464399465     15.025871834166736
C       5.191246964138163     13.414571099880495     14.499973310692038
C       6.011101830781281     14.290113911582239     13.740208208357641
C       7.223756066730077     13.853881822087372     13.169456180656420
C       8.092586655470674     14.737446980358362     12.542669780671378
C       7.792085670274302     16.108011223963178     12.469040083897852
C       6.581379962212921     16.562820952347316     12.965736426248638
C       5.626855626258417     15.678236751367292     13.579910776762219
O       4.494107791366294     16.152396713994552     13.962673222460715
O       6.180840067402347     17.863958862387342     12.899820746161538
C       7.028358064142819     18.831430412142772     12.249185511415652
H       2.676136275377758     14.020358959543854     16.270991900125427
H       5.458368108259458     12.373068307372344     14.663422000533442
H       7.475758710411903     12.795366392087459     13.247229471130018
H       9.021237880670125     14.375092652657655     12.098822045012918
H       8.503488310260582     16.803920521919270     12.035038514842496
H       3.878530055844142     14.851237792519621     14.761075268279683
H       6.530006680281016     19.797673285318101     12.406133792376835
H       8.022432140273404     18.841226848966720     12.708079512651985
H       7.115123719141793     18.631023086606078     11.172155919135985
O       6.562976871737788      2.527574194686380      8.473013514663917
N       5.843127278342680      1.938901797212927      7.461297912476863
C       4.718813049722621      2.396050161731925      6.935399389002193
C       3.898958183079507      1.520507350030142      6.175634286667813
C       2.686303947130715      1.956739439525049      5.604882258966514
C       1.817473358390121      1.073174281254066      4.978095858981517
C       2.117974343586498     -0.297389962350786      4.904466162208024
C       3.328680051647877     -0.752199690734921      5.401162504558763
C       4.283204387602378      0.132384510245119      6.015336855072369
O       5.415952222494481     -0.341775452382215      6.398099300770869
O       3.729219946458444     -2.053337600774953      5.335246824471694
C       2.881701949717954     -3.020809150530412      4.684611589725809
H       7.233923738483004      1.790262302068514      8.706417978435606
H       4.451691905601320      3.437552954240073      7.098848078843630
H       2.434301303448888      3.015254869524957      5.682655549440155
H       0.888822133190670      1.435528608954767      4.534248123323017
H       1.406571703600209     -0.993299260306908      4.470464593152649
H       6.031529958016635      0.959383469092784      7.196501346589764
H       3.380053333579784     -3.987052023705655      4.841559870686990
H       1.887627873587406     -3.030605587354242      5.143505590962140
H       2.794936294718987     -2.820401824993788      3.607581997446149
O       3.259623533784179      5.377736436119799      6.656134328715797
N       2.539773940389062      5.966408833593282      7.667849930902836
C       1.415459711769031      5.509260469074277      8.193748454377522
C       0.595604845125911      6.384803280776056      8.953513556711927
C      -0.617049390822884      5.948571191281142      9.524265584413152
C      -1.485879979563481      6.832136349552133     10.151051984398142
C      -1.185378994367098      8.202700593156939     10.224681681171646
C       0.025326713694274      8.657510321541077      9.727985338820904
C       0.979851049648795      7.772926120561082      9.113810988307318
O       2.112598884540909      8.247086083188451      8.731048542608841
O       0.425866608504860      9.958648231581185      9.793901018908034
C      -0.421651388235641     10.926119781336608     10.444536253653899
H       3.930570400529418      6.115048328737671      6.422729864944110
H       1.148338567647721      4.467757676566126      8.030299764536073
H      -0.869052034504716      4.890055761281229      9.446492293939563
H      -2.414531204762937      6.469782021851414     10.594899720056654
H      -1.896781634353391      8.898609891113095     10.658683250227053
H       2.728176620063060      6.945927161713443      7.932646496789912
H       0.076699995626181     11.892362654511855     10.287587972692714
H      -1.415725464366193     10.935916218160415      9.985642252417570
H      -0.508417043234609     10.725712455799995     11.521565845933582
O       0.043729804169420     10.432884825492614     -0.908439592974068
N       0.763579397564536      9.844212428019180      0.103276009212977
C       1.887893626184570     10.301360792538111      0.629174532687671
C       2.707748492827687      9.425817980836356      1.388939635022059
C       3.920402728776473      9.862050070331243      1.959691662723335
C       4.789233317517051      8.978484912060265      2.586478062708341
C       4.488732332320704      7.607920668455411      2.660107759481832
C       3.278026624259319      7.153110940071294      2.163411417131110
C       2.323502288304805      8.037695141051307      1.549237066617486
O       1.190754453412703      7.563535178423994      1.166474620918988
O       2.877486729448738      5.851973030031261      2.229327097218187
C       3.725004726189225      4.884501480275819      2.879962331964053
H      -0.627217062575828      9.695572932874729     -1.141844056745734
H       2.155014770305882     11.342863585046272      0.465725842846224
H       4.172405372458320     10.920565500331188      1.881918372249717
H       5.717884542716545      9.340839239760953      3.030325798366824
H       5.200134972306983      6.912011370499283      3.094109328537209
H       0.575176717890544      8.864694099899019      0.368072575100070
H       3.226653342327414      3.918258607100538      2.723014051002885
H       4.719078802319781      4.874705043451944      2.421068330727741
H       3.811770381188209      5.084908805812385      3.956991924243705
